NAME : portcgen-28-13
COMMENT : portcgen N=28, seed=13
TYPE : TSP
DIMENSION : 28
EDGE_WEIGHT_TYPE : EUC_2D
NODE_COORD_SECTION
1 165311 -123304
2 -153757 48374
3 195392 -155871
4 100081 197801
5 -95700 48404
6 104311 860293
7 189137 154722
8 -196447 -122522
9 239194 -167468
10 -85714 -220690
11 49232 -58842
12 -95749 -77575
13 -109486 48921
14 -262282 -114865
15 -131061 -77116
16 54865 -104021
17 234079 225514
18 34539 -142044
19 25660 55839
20 -161625 407594
21 -162848 -215382
22 -359701 239853
23 -251607 94995
24 -45928 -145424
25 -350977 135543
26 176448 -147460
27 62263 -294544
28 62277 -121824
